Gurobi 12.0.1:   lim:time = 28800
  mip:bestbound = 1
Set parameter LogToConsole to value 1
  tech:outlev = 1
Set parameter InfUnbdInfo to value 1
Gurobi Optimizer version 12.0.1 build v12.0.1rc0 (win64 - Windows 11.0 (22631.2))

CPU model: Intel(R) Core(TM) i7-10700 CPU @ 2.90GHz, instruction set [SSE2|AVX|AVX2]
Thread count: 8 physical cores, 16 logical processors, using up to 16 threads

Non-default parameters:
TimeLimit  28800
InfUnbdInfo  1

Optimize a model with 764 rows, 2362 columns and 14080 nonzeros
Model fingerprint: 0x67085b88
Model has 3 quadratic objective terms
Model has 9 quadratic constraints
Model has 264 simple general constraints
  264 AND
Variable types: 27 continuous, 2335 integer (0 binary)
Coefficient statistics:
  Matrix range     [1e+00, 1e+05]
  QMatrix range    [2e+00, 4e+01]
  QLMatrix range   [2e+00, 4e+01]
  Objective range  [6e+00, 4e+02]
  QObjective range [4e+00, 2e+01]
  Bounds range     [1e+00, 1e+00]
  RHS range        [1e+00, 1e+05]
  QRHS range       [7e+01, 1e+02]
Presolve added 921 rows and 0 columns
Presolve removed 0 rows and 39 columns
Presolve time: 0.05s
Presolved: 2660 rows, 3294 columns, 18323 nonzeros
Variable types: 22 continuous, 3272 integer (3272 binary)

Root relaxation: objective 1.174595e+03, 202 iterations, 0.01 seconds (0.01 work units)

    Nodes    |    Current Node    |     Objective Bounds      |     Work
 Expl Unexpl |  Obj  Depth IntInf | Incumbent    BestBd   Gap | It/Node Time

     0     0 1174.59471    0   58          - 1174.59471      -     -    0s
     0     0 1360.85000    0   29          - 1360.85000      -     -    0s
     0     0 1360.85000    0   29          - 1360.85000      -     -    0s
     0     0 1360.85000    0   35          - 1360.85000      -     -    0s
H    0     0                    3289.1900000 1360.85000  58.6%     -    0s
     0     0 1360.85000    0   28 3289.19000 1360.85000  58.6%     -    0s
H    0     0                    3279.1900000 1360.85000  58.5%     -    0s
     0     0 1360.85000    0   34 3279.19000 1360.85000  58.5%     -    0s
     0     0 1360.85000    0   28 3279.19000 1360.85000  58.5%     -    0s
     0     0 1360.85000    0   28 3279.19000 1360.85000  58.5%     -    0s
H    0     2                    3135.1600000 1361.34000  56.6%     -    0s
     0     2 1361.34000    0   28 3135.16000 1361.34000  56.6%     -    0s
H   40    45                    2934.7300000 1361.34000  53.6%  40.8    0s
H   83    85                    2780.8300000 1361.34000  51.0%  27.1    1s
H   89    85                    2478.6700000 1361.34000  45.1%  26.1    1s
H  127   122                    2181.7600000 1361.34000  37.6%  22.9    1s
H  429   378                    2174.3000000 1361.34000  37.4%  19.1    1s
H  528   440                    2171.7500000 1366.04000  37.1%  17.9    1s
H  530   440                    2171.5400000 1366.04000  37.1%  17.9    1s
H  533   440                    2140.5800000 1366.04000  36.2%  18.1    1s
H 1569  1228                    2127.8500000 1385.62739  34.9%  14.9    2s
H 1590  1214                    2092.9100000 1385.62739  33.8%  14.8    2s
* 1691  1198              33    1979.3100000 1385.62739  30.0%  14.7    2s
H 1712  1145                    1868.8200000 1385.62739  25.9%  14.5    4s
H 1713  1088                    1776.5100000 1385.62739  22.0%  14.5    4s
  1718  1091 1725.72461   34  103 1776.51000 1411.14975  20.6%  14.5    5s
H 1724  1040                    1723.5300000 1411.79516  18.1%  14.4    5s
H 1732   992                    1613.7000000 1416.22438  12.2%  14.3    5s
H 1746   951                    1609.2900000 1430.87133  11.1%  14.2    6s
  1815   998 1609.29000   35   51 1609.29000 1473.10792  8.46%  17.3   10s
H 1867   980                    1604.0600000 1477.43560  7.89%  16.8   13s
  1903  1005 1558.82000   33  179 1604.06000 1478.19088  7.85%  18.5   15s
H 2859  1011                    1601.3500000 1501.99720  6.20%  29.4   17s
  4145   636 1535.14654   47   74 1601.35000 1524.19208  4.82%  30.7   20s

Cutting planes:
  Learned: 4
  Gomory: 9
  Cover: 19
  Implied bound: 24
  MIR: 53
  Mixing: 7
  StrongCG: 6
  Flow cover: 76
  GUB cover: 10
  Inf proof: 4
  Zero half: 54
  RLT: 79
  BQP: 18

Explored 6476 nodes (196751 simplex iterations) in 22.73 seconds (11.85 work units)
Thread count was 16 (of 16 available processors)

Solution count 10: 1601.35 1604.06 1609.29 ... 2127.85

Optimal solution found (tolerance 1.00e-04)
Best objective 1.601350000000e+03, best bound 1.601350000000e+03, gap 0.0000%

AMPL MP initial flat model has 2098 variables (0 integer, 2071 binary);
Objectives: 1 quadratic; 
Constraints:  764 linear; 9 quadratic;
Logical expressions:  264 and;

AMPL MP final model has 2362 variables (0 integer, 2335 binary);
Objectives: 1 quadratic; 
Constraints:  764 linear; 9 quadratic;
Logical expressions:  264 and;


-----RESULTS INFO-----
running_time:  22.891
TC.best_bound:  1601.35
TC:  1601.3500000000001
MIP Gap (%):  1.4198874414914418e-14
=== Vehicle Routes ===
Vehicle 1: 0 → 24
Vehicle 1: 24 → 0
Vehicle 2: 0 → 19
Vehicle 2: 1 → 0
Vehicle 2: 2 → 3
Vehicle 2: 3 → 4
Vehicle 2: 4 → 23
Vehicle 2: 7 → 2
Vehicle 2: 9 → 1
Vehicle 2: 19 → 29
Vehicle 2: 22 → 9
Vehicle 2: 23 → 22
Vehicle 2: 27 → 28
Vehicle 2: 28 → 7
Vehicle 2: 29 → 27
Vehicle 3: 0 → 5
Vehicle 3: 5 → 0
Vehicle 4: 0 → 21
Vehicle 4: 6 → 0
Vehicle 4: 8 → 6
Vehicle 4: 20 → 8
Vehicle 4: 21 → 20

=== Full Vehicle Routes ===
Vehicle 1: 0 → 24 → 0
Vehicle 2: 0 → 19 → 29 → 27 → 28 → 7 → 2 → 3 → 4 → 23 → 22 → 9 → 1 → 0
Vehicle 3: 0 → 5 → 0
Vehicle 4: 0 → 21 → 20 → 8 → 6 → 0
Arc used by MRT line: y variables:
MRT used: 24 → 25
Customer assigment to PL: u variables:
10 24
11 28
12 29
13 24
14 28
15 24
16 25
17 27
18 25
Node is served by regular vehicle: g variables:
1
2
3
4
5
6
7
8
9
19
20
21
22
23
27
28
29
24
Customer assigment to Home delivery: gm variables:
1
2
3
4
5
6
7
8
9
19
20
21
22
23
Customer's demand delivered to PL: l variables:
10
11
12
13
14
15
16
17
18
